
Gurobi 6.5.2 (linux64) logging started Mon Aug 29 10:57:52 2016

Optimize a model with 41 rows, 153 columns and 313 nonzeros
Coefficient statistics:
  Matrix range    [1e+00, 2e+00]
  Objective range [4e+00, 1e+02]
  Bounds range    [1e+00, 1e+00]
  RHS range       [1e+00, 1e+00]
Found heuristic solution: objective 1135
Presolve removed 18 rows and 14 columns
Presolve time: 0.00s
Presolved: 23 rows, 139 columns, 281 nonzeros
Variable types: 0 continuous, 139 integer (139 binary)

Root relaxation: objective 4.090000e+02, 33 iterations, 0.00 seconds

    Nodes    |    Current Node    |     Objective Bounds      |     Work
 Expl Unexpl |  Obj  Depth IntInf | Incumbent    BestBd   Gap | It/Node Time

     0     0  409.00000    0    6 1135.00000  409.00000  64.0%     -    0s
H    0     0                     585.0000000  409.00000  30.1%     -    0s
H    0     0                     459.0000000  409.00000  10.9%     -    0s
H    0     0                     440.0000000  409.00000  7.05%     -    0s
H    0     0                     411.0000000  409.00000  0.49%     -    0s
H    0     0                     410.0000000  409.00000  0.24%     -    0s

Cutting planes:
  Gomory: 1

Explored 0 nodes (35 simplex iterations) in 0.00 seconds
Thread count was 8 (of 8 available processors)

Optimal solution found (tolerance 1.00e-04)
Best objective 4.100000000000e+02, best bound 4.100000000000e+02, gap 0.0%
